
Gurobi 12.0.2 (win64) logging started Thu Jun  5 10:48:56 2025

Set parameter LogFile to value "C:\Ioana\_uni\honours\slp\algorithm\Main_files\results\others\prox_tubules\Task_009_Sample001_irr_gurobi.log"
Gurobi Optimizer version 12.0.2 build v12.0.2rc0 (win64 - Windows 11.0 (26100.2))

CPU model: Intel(R) Core(TM) Ultra 5 125H, instruction set [SSE2|AVX|AVX2]
Thread count: 14 physical cores, 18 logical processors, using up to 18 threads

Non-default parameters:
TimeLimit  2200

Optimize a model with 47658 rows, 34809 columns and 147856 nonzeros
Model fingerprint: 0xa0a77710
Variable types: 17415 continuous, 17394 integer (17394 binary)
Coefficient statistics:
  Matrix range     [1e-04, 8e+04]
  Objective range  [1e-04, 1e+01]
  Bounds range     [1e+00, 1e+03]
  RHS range        [1e+00, 1e+00]
Presolve removed 31206 rows and 21850 columns
Presolve time: 0.34s
Presolved: 16452 rows, 12959 columns, 54683 nonzeros
Variable types: 6413 continuous, 6546 integer (6546 binary)

Root relaxation: objective 9.695804e-03, 2033 iterations, 0.10 seconds (0.16 work units)

    Nodes    |    Current Node    |     Objective Bounds      |     Work
 Expl Unexpl |  Obj  Depth IntInf | Incumbent    BestBd   Gap | It/Node Time

     0     0    0.00970    0   18          -    0.00970      -     -    0s
H    0     0                       7.9094248    0.00970   100%     -    0s
     0     0    5.00749    0   32    7.90942    5.00749  36.7%     -    1s
     0     0    5.00749    0   33    7.90942    5.00749  36.7%     -    1s
     0     0    5.03104    0   32    7.90942    5.03104  36.4%     -    1s
     0     0    6.29098    0   24    7.90942    6.29098  20.5%     -    1s
     0     0    7.01063    0   28    7.90942    7.01063  11.4%     -    1s
     0     0    7.01063    0   30    7.90942    7.01063  11.4%     -    1s
     0     0    7.01095    0   31    7.90942    7.01095  11.4%     -    1s
     0     0    7.22886    0   22    7.90942    7.22886  8.60%     -    1s
     0     0    7.22886    0    4    7.90942    7.22886  8.60%     -    1s
     0     0     cutoff    0         7.90942    7.90942  0.00%     -    1s

Cutting planes:
  Gomory: 1
  Cover: 1
  Implied bound: 2
  MIR: 8
  Flow cover: 12
  Flow path: 2
  Relax-and-lift: 1

Explored 1 nodes (5695 simplex iterations) in 1.75 seconds (1.93 work units)
Thread count was 18 (of 18 available processors)

Solution count 1: 7.90942 

Optimal solution found (tolerance 1.00e-04)
Best objective 7.909424806397e+00, best bound 7.909424806397e+00, gap 0.0000%
